3
2
2 3
1 -1 1
0 1 1 1 -33
0 1 1 2  9
0 1 2 2 -26
0 2 1 1 -14
0 2 1 2 -9
0 2 1 3 -40
0 2 2 2 -91
0 2 2 3 -10
0 2 3 3 -15 
1 1 1 1 7
1 1 1 2 11
1 1 2 2 -3
1 2 1 1 21
1 2 1 2 11
1 2 2 2 -10
1 2 2 3 -8
1 2 3 3 -5
2 1 1 1 -7
2 1 1 2 18
2 1 2 2 -8
2 2 1 2 -10
2 2 1 3 -16
2 2 2 2  10
2 2 2 3  10
2 2 3 3 -3
3 1 1 1  2
3 1 1 2  8
3 1 2 2 -1
3 2 1 1  5
3 2 1 2 -2
3 2 1 3  17
3 2 2 2  6
3 2 2 3  7
3 2 3 3 -6
